c CNF file corresponding to a (partial) station packing problem.
p cnf 4250 229
1 2 3 4 5 6 7 8 9 10 11 12 13 14 0
-1 -2 0
-1 -3 0
-1 -4 0
-1 -5 0
-1 -6 0
-1 -7 0
-1 -8 0
-1 -9 0
-1 -10 0
-1 -11 0
-1 -12 0
-1 -13 0
-1 -14 0
-2 -3 0
-2 -4 0
-2 -5 0
-2 -6 0
-2 -7 0
-2 -8 0
-2 -9 0
-2 -10 0
-2 -11 0
-2 -12 0
-2 -13 0
-2 -14 0
-3 -4 0
-3 -5 0
-3 -6 0
-3 -7 0
-3 -8 0
-3 -9 0
-3 -10 0
-3 -11 0
-3 -12 0
-3 -13 0
-3 -14 0
-4 -5 0
-4 -6 0
-4 -7 0
-4 -8 0
-4 -9 0
-4 -10 0
-4 -11 0
-4 -12 0
-4 -13 0
-4 -14 0
-5 -6 0
-5 -7 0
-5 -8 0
-5 -9 0
-5 -10 0
-5 -11 0
-5 -12 0
-5 -13 0
-5 -14 0
-6 -7 0
-6 -8 0
-6 -9 0
-6 -10 0
-6 -11 0
-6 -12 0
-6 -13 0
-6 -14 0
-7 -8 0
-7 -9 0
-7 -10 0
-7 -11 0
-7 -12 0
-7 -13 0
-7 -14 0
-8 -9 0
-8 -10 0
-8 -11 0
-8 -12 0
-8 -13 0
-8 -14 0
-9 -10 0
-9 -11 0
-9 -12 0
-9 -13 0
-9 -14 0
-10 -11 0
-10 -12 0
-10 -13 0
-10 -14 0
-11 -12 0
-11 -13 0
-11 -14 0
-12 -13 0
-12 -14 0
-13 -14 0
4234 4235 4236 4237 4238 4239 4240 4241 4242 4243 4244 4245 4246 4247 4248 4249 4250 0
-4234 -4235 0
-4234 -4236 0
-4234 -4237 0
-4234 -4238 0
-4234 -4239 0
-4234 -4240 0
-4234 -4241 0
-4234 -4242 0
-4234 -4243 0
-4234 -4244 0
-4234 -4245 0
-4234 -4246 0
-4234 -4247 0
-4234 -4248 0
-4234 -4249 0
-4234 -4250 0
-4235 -4236 0
-4235 -4237 0
-4235 -4238 0
-4235 -4239 0
-4235 -4240 0
-4235 -4241 0
-4235 -4242 0
-4235 -4243 0
-4235 -4244 0
-4235 -4245 0
-4235 -4246 0
-4235 -4247 0
-4235 -4248 0
-4235 -4249 0
-4235 -4250 0
-4236 -4237 0
-4236 -4238 0
-4236 -4239 0
-4236 -4240 0
-4236 -4241 0
-4236 -4242 0
-4236 -4243 0
-4236 -4244 0
-4236 -4245 0
-4236 -4246 0
-4236 -4247 0
-4236 -4248 0
-4236 -4249 0
-4236 -4250 0
-4237 -4238 0
-4237 -4239 0
-4237 -4240 0
-4237 -4241 0
-4237 -4242 0
-4237 -4243 0
-4237 -4244 0
-4237 -4245 0
-4237 -4246 0
-4237 -4247 0
-4237 -4248 0
-4237 -4249 0
-4237 -4250 0
-4238 -4239 0
-4238 -4240 0
-4238 -4241 0
-4238 -4242 0
-4238 -4243 0
-4238 -4244 0
-4238 -4245 0
-4238 -4246 0
-4238 -4247 0
-4238 -4248 0
-4238 -4249 0
-4238 -4250 0
-4239 -4240 0
-4239 -4241 0
-4239 -4242 0
-4239 -4243 0
-4239 -4244 0
-4239 -4245 0
-4239 -4246 0
-4239 -4247 0
-4239 -4248 0
-4239 -4249 0
-4239 -4250 0
-4240 -4241 0
-4240 -4242 0
-4240 -4243 0
-4240 -4244 0
-4240 -4245 0
-4240 -4246 0
-4240 -4247 0
-4240 -4248 0
-4240 -4249 0
-4240 -4250 0
-4241 -4242 0
-4241 -4243 0
-4241 -4244 0
-4241 -4245 0
-4241 -4246 0
-4241 -4247 0
-4241 -4248 0
-4241 -4249 0
-4241 -4250 0
-4242 -4243 0
-4242 -4244 0
-4242 -4245 0
-4242 -4246 0
-4242 -4247 0
-4242 -4248 0
-4242 -4249 0
-4242 -4250 0
-4243 -4244 0
-4243 -4245 0
-4243 -4246 0
-4243 -4247 0
-4243 -4248 0
-4243 -4249 0
-4243 -4250 0
-4244 -4245 0
-4244 -4246 0
-4244 -4247 0
-4244 -4248 0
-4244 -4249 0
-4244 -4250 0
-4245 -4246 0
-4245 -4247 0
-4245 -4248 0
-4245 -4249 0
-4245 -4250 0
-4246 -4247 0
-4246 -4248 0
-4246 -4249 0
-4246 -4250 0
-4247 -4248 0
-4247 -4249 0
-4247 -4250 0
-4248 -4249 0
-4248 -4250 0
-4249 -4250 0
